
--- Job DIETER.gms Start 12/02/18 11:53:22 24.7.4 r58773 WEX-WEI x86 64bit/MS Windows
GAMS 24.7.4   Copyright (C) 1987-2016 GAMS Development. All rights reserved
Licensee: Medium MUD - 10 User License                   S180308:0349AO-GEN
          Deutsches Institut fuer Wirtschaftsforschung DIW, AbteilungDC3975
          License for teaching and research at degree granting institutions
          License Admin: Claudia Kemfert, bbibra@diw.de                    
--- Starting compilation
--- DIETER.gms(110) 2 Mb
--- .dataload.gms(404) 2 Mb
--- call gdxxrw data_input.xlsx @temp.tmp o=Data_input maxdupeerrors=100

GDXXRW           24.7.4 r58773 Released Sep 19, 2016 VS8 x86 32bit/MS Windows 
Input file : C:\Users\Lenovo\Documents\GitHub\prosumage\Code\Prosumage_Opt\Dieter_Module\Modified_MCP\data_input.xlsx
Output file: C:\Users\Lenovo\Documents\GitHub\prosumage\Code\Prosumage_Opt\Dieter_Module\Modified_MCP\Data_input.gdx
Total time = 3031 Ms
--- .dataload.gms(406) 2 Mb
--- GDXin=C:\Users\Lenovo\Documents\GitHub\prosumage\Code\Prosumage_Opt\Dieter_Module\Modified_MCP\Data_input.gdx
--- .dataload.gms(452) 3 Mb
--- call gdxxrw time_series.xlsx @temp2.tmp o=time_series

GDXXRW           24.7.4 r58773 Released Sep 19, 2016 VS8 x86 32bit/MS Windows 
Input file : C:\Users\Lenovo\Documents\GitHub\prosumage\Code\Prosumage_Opt\Dieter_Module\Modified_MCP\time_series.xlsx
Output file: C:\Users\Lenovo\Documents\GitHub\prosumage\Code\Prosumage_Opt\Dieter_Module\Modified_MCP\time_series.gdx
Total time = 33750 Ms
--- .dataload.gms(453) 3 Mb
--- GDXin=C:\Users\Lenovo\Documents\GitHub\prosumage\Code\Prosumage_Opt\Dieter_Module\Modified_MCP\time_series.gdx
--- .dataload.gms(584) 5 Mb
--- DIETER.gms(145) 5 Mb
--- .model.gms(766) 5 Mb
--- DIETER.gms(178) 5 Mb
--- .fix.gms(239) 5 Mb
--- DIETER.gms(179) 5 Mb
--- .scenario.gms(64) 5 Mb
--- DIETER.gms(214) 6 Mb
--- Starting execution: elapsed 0:00:37.066
--- DIETER.gms(1835) 32 Mb
--- Generating LP model DIETER
--- DIETER.gms(897) 47 Mb  16 secs
--- DIETER.gms(925) 68 Mb  26 secs
--- DIETER.gms(1023) 114 Mb  45 secs
--- DIETER.gms(1836) 116 Mb
---   236,538 rows  297,847 columns  1,021,056 non-zeroes
--- Executing CPLEX: elapsed 0:02:08.774

IBM ILOG CPLEX   24.7.4 r58773 Released Sep 19, 2016 WEI x86 64bit/MS Windows 
--- GAMS/Cplex licensed for continuous and discrete problems.
Cplex 12.6.3.0

Reading parameter(s) from "C:\Users\Lenovo\Documents\GitHub\prosumage\Code\Prosumage_Opt\Dieter_Module\Modified_MCP\cplex.opt"
>>  lpmethod 4
>>  threads 4
>>  epgap 1e-3
Finished reading from "C:\Users\Lenovo\Documents\GitHub\prosumage\Code\Prosumage_Opt\Dieter_Module\Modified_MCP\cplex.opt"
Reading data...
Starting Cplex...
Space for names approximately 15.63 Mb
Use option 'names no' to turn use of names off
Tried aggregator 1 time.
LP Presolve eliminated 12650 rows and 38910 columns.
Aggregator did 2 substitutions.
Reduced LP has 223886 rows, 258935 columns, and 715449 nonzeros.
Presolve time = 0.42 sec. (160.68 ticks)
Parallel mode: using up to 4 threads for barrier.

***NOTE: Found 14 dense columns.

Number of nonzeros in lower triangle of A*A' = 556717
Using Approximate Minimum Degree ordering
Total time for automatic ordering = 0.31 sec. (90.89 ticks)
Summary statistics for Cholesky factor:
  Threads                   = 4
  Rows in Factor            = 223900
  Integer space required    = 608901
  Total non-zeros in factor = 2707456
  Total FP ops to factor    = 51032888
 Itn      Primal Obj        Dual Obj  Prim Inf Upper Inf  Dual Inf Inf Ratio
   0  4.5765003e+012 -9.4255457e+010 1.31e+011 1.25e+007 1.76e+010 1.00e+000
   1  4.0273220e+011  2.2190209e+010 1.07e+010 1.02e+006 1.40e+009 7.95e-007
   2  3.7973032e+011  4.9270223e+010 9.97e+009 9.50e+005 1.78e+008 4.14e-008
   3  1.6840354e+011  5.2026240e+010 3.52e+009 3.35e+005 5.16e+007 1.29e-007
   4  1.3224346e+011  3.7206344e+010 2.59e+009 2.47e+005 1.60e+007 2.11e-007
   5  6.6869731e+010  3.2131144e+010 9.57e+008 9.12e+004 6.51e+006 4.54e-007
   6  5.0094730e+010  3.2310172e+010 4.91e+008 4.68e+004 2.70e+006 1.20e-006
   7  4.6516923e+010  3.2692798e+010 3.86e+008 3.68e+004 1.66e+006 2.11e-006
   8  4.2367519e+010  3.2964492e+010 2.64e+008 2.51e+004 1.07e+006 3.68e-006
   9  3.9343652e+010  3.3150490e+010 1.73e+008 1.65e+004 7.10e+005 6.29e-006
  10  3.7778405e+010  3.3269446e+010 1.27e+008 1.21e+004 5.02e+005 9.91e-006
  11  3.6658549e+010  3.3342155e+010 9.33e+007 8.89e+003 3.58e+005 1.55e-005
  12  3.5900875e+010  3.3392941e+010 7.08e+007 6.75e+003 2.48e+005 2.51e-005
  13  3.5744397e+010  3.3414510e+010 6.57e+007 6.27e+003 2.32e+005 2.73e-005
  14  3.4905865e+010  3.3462098e+010 4.09e+007 3.90e+003 1.34e+005 5.59e-005
  15  3.4260027e+010  3.3487508e+010 2.16e+007 2.06e+003 8.70e+004 9.91e-005
  16  3.3938250e+010  3.3510690e+010 1.16e+007 1.10e+003 6.18e+004 1.52e-004
  17  3.3790003e+010  3.3526097e+010 6.78e+006 6.47e+002 4.81e+004 2.11e-004
  18  3.3685261e+010  3.3547706e+010 3.40e+006 3.24e+002 2.88e+004 4.10e-004
  19  3.3637111e+010  3.3558390e+010 1.91e+006 1.82e+002 1.78e+004 7.77e-004
  20  3.3599979e+010  3.3563842e+010 8.47e+005 8.08e+001 9.65e+003 1.71e-003
  21  3.3583829e+010  3.3565643e+010 4.09e+005 3.90e+001 6.08e+003 3.12e-003
  22  3.3574501e+010  3.3566242e+010 1.82e+005 1.74e+001 3.43e+003 6.25e-003
  23  3.3569588e+010  3.3566473e+010 6.59e+004 6.49e+000 1.52e+003 1.84e-002
  24  3.3567811e+010  3.3566225e+010 3.40e+004 3.36e+000 8.61e+002 3.59e-002
  25  3.3566830e+010  3.3565977e+010 1.70e+004 1.68e+000 2.98e+002 1.51e-001
  26  3.3566308e+010  3.3565734e+010 1.02e+004 9.24e-001 5.88e+001 9.93e-001
  27  3.3565955e+010  3.3565687e+010 4.93e+003 4.07e-001 1.12e+001 3.91e+000
  28  3.3565752e+010  3.3565680e+010 1.31e+003 1.16e-001 6.21e+000 4.68e+000
  29  3.3565717e+010  3.3565692e+010 5.16e+002 4.52e-002 1.22e+000 2.38e+001
  30  3.3565700e+010  3.3565693e+010 1.53e+002 1.31e-002 5.39e-001 4.29e+001
  31  3.3565697e+010  3.3565694e+010 5.89e+001 4.45e-003 3.50e-001 6.64e+001
  32  3.3565696e+010  3.3565695e+010 1.89e+001 1.34e-003 1.46e-001 1.84e+002
  33  3.3565695e+010  3.3565695e+010 2.32e+002 3.70e-004 5.88e-002 4.69e+002
Sending CtrlBreakp signal
Batchvorgang abbrechen (J/N)? 
^CERROR: Solver "CPLEX" returned with nonzero exitcode -1073741510 
Exit code = -1073741510
